NAME : ManP-5-2
COMMENT : Pilot. 5 postmen. Max route 2941.15=4999.955m
TYPE : TSP
DIMENSION : 6
VEHICLES : 5
SCALE : 1000
DISTANCE : 4999.955
EDGE_WEIGHT_TYPE : EXPLICIT
EDGE_WEIGHT_FORMAT : UPPER_ROW
EDGE_WEIGHT_SECTION
520.625
291.946
1260.462
756.896
725.274

798.631
1759.560
250.211
218.589

1127.516
1043.403
1001.697

1859.700
1970.417

116.157

DEPOT_SECTION
1
-1
EOF
